MoS2_mp-2815_computed                   
   1.00000000000000     
     3.2088964155752837    0.0000000000000018    0.0000000000000000
    -1.6044482077876572    2.7789858140008992    0.0000000000000000
     0.0000000000000000   -0.0000000000000000   36.1927096565979909
   Mo   S 
     2     4
Direct
  0.3333330000000032  0.6666669999999968  0.2500000000000000
  0.6666669999999968  0.3333330000000032  0.7500000000000000
  0.3333330000000032  0.6666669999999968  0.7624520484738612
  0.6666669999999968  0.3333330000000032  0.2375479515261336
  0.6666659999999993  0.3333330000000032  0.2624520484738397
  0.3333340000000007  0.6666669999999968  0.7375479515261388
 
  0.00000000E+00  0.00000000E+00  0.00000000E+00
  0.00000000E+00  0.00000000E+00  0.00000000E+00
  0.00000000E+00  0.00000000E+00  0.00000000E+00
  0.00000000E+00  0.00000000E+00  0.00000000E+00
  0.00000000E+00  0.00000000E+00  0.00000000E+00
  0.00000000E+00  0.00000000E+00  0.00000000E+00
