MoS2_mp-2815_computed                   
   1.00000000000000     
     3.1838672054661012    0.0000000000000000    0.0000000000000000
    -1.5919336027330500    2.7573098822098134    0.0000000000000000
     0.0000000000000000    0.0000000000000000   14.8658132887272494
   Mo   S 
     2     4
Direct
  0.3333330000000032  0.6666669999999968  0.2500000000000000
  0.6666669999999968  0.3333330000000032  0.7500000000000000
  0.3333330000000032  0.6666669999999968  0.8551698636717404
  0.6666669999999968  0.3333330000000032  0.1448301363282596
  0.6666659999999993  0.3333330000000032  0.3551698636717404
  0.3333340000000007  0.6666669999999968  0.6448301363282596
 
  0.00000000E+00  0.00000000E+00  0.00000000E+00
  0.00000000E+00  0.00000000E+00  0.00000000E+00
  0.00000000E+00  0.00000000E+00  0.00000000E+00
  0.00000000E+00  0.00000000E+00  0.00000000E+00
  0.00000000E+00  0.00000000E+00  0.00000000E+00
  0.00000000E+00  0.00000000E+00  0.00000000E+00
