MoS2_mp-2815_computed                   
   1.00000000000000     
     3.1903157300000000    0.0000000000000000    0.0000000000000000
    -1.5951578649999993    2.7628944682730965    0.0000000000000000
     0.0000000000000000    0.0000000000000000   24.8790043000000018
   Mo   S 
     2     4
Direct
  0.3333329991192144  0.6666670012739431  0.1495159053785216
  0.6666669996260595  0.3333329993510858  0.8504840950234254
  0.3333329991192144  0.6666670012739431  0.9132469488307322
  0.6666669996260595  0.3333329993510858  0.0867530511692678
  0.6666659997250264  0.3333329993510858  0.2122711462682858
  0.3333340021547357  0.6666670012739431  0.7877288537317071
 
  0.00000000E+00  0.00000000E+00  0.00000000E+00
  0.00000000E+00  0.00000000E+00  0.00000000E+00
  0.00000000E+00  0.00000000E+00  0.00000000E+00
  0.00000000E+00  0.00000000E+00  0.00000000E+00
  0.00000000E+00  0.00000000E+00  0.00000000E+00
  0.00000000E+00  0.00000000E+00  0.00000000E+00
