k-density: 5.0
0
Gamma
 10 10 3
 0  0  0
