MoS2_mp-2815_computed
 1.0000000000000000
     3.1903157300000000    0.0000000000000000    0.0000000000000000
    -1.5951578649999993    2.7628944682730965    0.0000000000000000
     0.0000000000000000    0.0000000000000000   14.8790043000000001
  Mo   S
   2   4
Direct
  0.3333330000000000  0.6666670000000000  0.2500000000000000
  0.6666670000000001  0.3333330000000000  0.7500000000000000
  0.3333330000000000  0.6666670000000000  0.8551740000000000
  0.6666670000000001  0.3333330000000000  0.1448260000000000
  0.6666660000000000  0.3333330000000000  0.3551739999999999
  0.3333340000000000  0.6666670000000000  0.6448260000000000
