ICSD_CollCode254956
 1.0000000000000000
     3.1899999999999999    0.0000000000000000    0.0000000000000000
    -1.5949999999999993    2.7626210380723593    0.0000000000000000
     0.0000000000000000    0.0000000000000000    5.9450000000000003
  Mo   S
   1   2
Direct
  0.0000000000000000  0.0000000000000000  0.0000000000000000
  0.6666000000000001  0.3333000000000000  0.7440999999999999
  0.3334000000000000  0.6667000000000000  0.2559000000000000
