MoS2_mp-2815_computed                   
   1.00000000000000     
     3.1903157300000000    0.0000000000000000    0.0000000000000000
    -1.5951578649999993    2.7628944682730965    0.0000000000000000
     0.0000000000000000    0.0000000000000000   22.8790043000000018
   Mo   S 
     1     2
Direct
  0.3333329991192144  0.6666670012739431  0.1625836085882426
  0.6666669996260595  0.3333329993510858  0.0941853348049762
  0.6666659997250264  0.3333329993510858  0.2309818819344329
 
  0.00000000E+00  0.00000000E+00  0.00000000E+00
  0.00000000E+00  0.00000000E+00  0.00000000E+00
  0.00000000E+00  0.00000000E+00  0.00000000E+00
