MoS2_mp-2815_computed
 1.0000000000000000
     3.1903157300000000    0.0000000000000000    0.0000000000000000
    -1.5951578649999993    2.7628944682730965    0.0000000000000000
     0.0000000000000000    0.0000000000000000   30.8790043000000001
  Mo   S
   1   2
Cartesian
  -0.00000160  1.84193057  3.71975108
   1.59515946  0.92096390  2.15486668
   1.59515627  0.92096390  5.28463547

