MoS2_mp-2815_computed                   
   1.00000000000000     
     3.1898568304050512    0.0000000000000000    0.0000000000000000
    -1.5949284152025249    2.7624970495660843    0.0000000000000000
     0.0000000000000000    0.0000000000000000   30.7939788682764508
   Mo   S 
     1     2
Direct
  0.3333329991192144  0.6666670012739431  0.1204621445646836
  0.6666669996260595  0.3333329993510858  0.0698404529154431
  0.6666659997250264  0.3333329993510858  0.1710838358900730
 
  0.00000000E+00  0.00000000E+00  0.00000000E+00
  0.00000000E+00  0.00000000E+00  0.00000000E+00
  0.00000000E+00  0.00000000E+00  0.00000000E+00
