MoS2_mp-2815_computed                   
   1.00000000000000     
     3.1903157300000000    0.0000000000000000    0.0000000000000000
    -1.5951578649999993    2.7628944682730965    0.0000000000000000
     0.0000000000000000    0.0000000000000000   42.8790042999999983
   Mo   S 
     1     2
Direct
  0.3333329991192144  0.6666670012739431  0.0867499406930037
  0.6666669996260595  0.3333329993510858  0.0502545876514233
  0.6666659997250264  0.3333329993510858  0.1232452935013697
 
  0.00000000E+00  0.00000000E+00  0.00000000E+00
  0.00000000E+00  0.00000000E+00  0.00000000E+00
  0.00000000E+00  0.00000000E+00  0.00000000E+00
