k-density: 8.0
0
Gamma
 16 16 4
 0  0  0
