k-density: 6.0
0
Gamma
 12 12 3
 0  0  0
