MoS2_mp-2815_computed                   
   1.00000000000000     
     3.1833971160323697    0.0000000000000000    0.0000000000000000
    -1.5916985580161842    2.7569027728181510    0.0000000000000000
     0.0000000000000000    0.0000000000000000   24.8645860135919037
   Mo   S 
     2     4
Direct
  0.3333329991192144  0.6666670012739431  0.1495135541858588
  0.6666669996260595  0.3333329993510858  0.8504864462160882
  0.3333329991192144  0.6666670012739431  0.9133715472884347
  0.6666669996260595  0.3333329993510858  0.0866284527115653
  0.6666659997250264  0.3333329993510858  0.2123966438698233
  0.3333340021547357  0.6666670012739431  0.7876033561301696
 
  0.00000000E+00  0.00000000E+00  0.00000000E+00
  0.00000000E+00  0.00000000E+00  0.00000000E+00
  0.00000000E+00  0.00000000E+00  0.00000000E+00
  0.00000000E+00  0.00000000E+00  0.00000000E+00
  0.00000000E+00  0.00000000E+00  0.00000000E+00
  0.00000000E+00  0.00000000E+00  0.00000000E+00
