MoS2_mp-2815_computed                   
   1.00000000000000     
     3.1834765051393896    0.0000000000000000    0.0000000000000000
    -1.5917382525696941    2.7569715258016143    0.0000000000000000
     0.0000000000000000    0.0000000000000000   14.8682919051934004
   Mo   S 
     2     4
Direct
  0.3333330000000032  0.6666669999999968  0.2500000000000000
  0.6666669999999968  0.3333330000000032  0.7500000000000000
  0.3333330000000032  0.6666669999999968  0.8551553025913066
  0.6666669999999968  0.3333330000000032  0.1448446974086934
  0.6666659999999993  0.3333330000000032  0.3551553025913066
  0.3333340000000007  0.6666669999999968  0.6448446974086934
 
  0.00000000E+00  0.00000000E+00  0.00000000E+00
  0.00000000E+00  0.00000000E+00  0.00000000E+00
  0.00000000E+00  0.00000000E+00  0.00000000E+00
  0.00000000E+00  0.00000000E+00  0.00000000E+00
  0.00000000E+00  0.00000000E+00  0.00000000E+00
  0.00000000E+00  0.00000000E+00  0.00000000E+00
