k-density: 9.0
0
Gamma
 18 18 4
 0  0  0
