unknown system                          
   1.00000000000000     
     3.1922737479302241    0.0000000000000012    0.0000000000000000
    -1.5961368739650947    2.7645903466400465    0.0000000000000000
     0.0000000000000000    0.0000000000000000   13.2815487620590922
   Mo   S 
     2     4
Direct
  0.3333330000000032  0.6666669999999968  0.2500000000000000
  0.6666669999999968  0.3333330000000032  0.7500000000000000
  0.3333330000000032  0.6666669999999968  0.8674357280303937
  0.6666669999999968  0.3333330000000032  0.1325642719696063
  0.6666659999999993  0.3333330000000032  0.3674357280303937
  0.3333340000000007  0.6666669999999968  0.6325642719696063
 
  0.00000000E+00  0.00000000E+00  0.00000000E+00
  0.00000000E+00  0.00000000E+00  0.00000000E+00
  0.00000000E+00  0.00000000E+00  0.00000000E+00
  0.00000000E+00  0.00000000E+00  0.00000000E+00
  0.00000000E+00  0.00000000E+00  0.00000000E+00
  0.00000000E+00  0.00000000E+00  0.00000000E+00
